data;


param d:= 100;
param r:=5;
param p:=0.400000;
param M:=1000;
param U:=
         1         1       -4.021933e-02
         2         1        4.621498e-01
         3         1        1.198382e+00
         4         1        2.659338e-01
         5         1        2.065796e+00
         6         1       -1.219271e+00
         7         1       -1.538315e+00
         8         1        1.480140e+00
         9         1        2.440281e+00
        10         1        1.513004e-01
        11         1       -1.264602e+00
        12         1       -3.267414e-01
        13         1        3.551698e-01
        14         1        7.420003e-01
        15         1       -1.526819e+00
        16         1        4.537704e-01
        17         1        3.382457e-01
        18         1        7.191868e-01
        19         1        2.330852e-01
        20         1        4.733500e-02
        21         1        5.268787e-01
        22         1       -1.256941e-01
        23         1        1.338466e+00
        24         1        1.080534e+00
        25         1       -7.266036e-01
        26         1       -1.945727e+00
        27         1        7.917370e-01
        28         1       -2.501301e-01
        29         1       -5.981268e-01
        30         1       -6.978232e-02
        31         1       -7.357207e-02
        32         1       -1.091141e+00
        33         1       -3.797195e-01
        34         1       -4.727128e-01
        35         1       -2.151951e+00
        36         1        7.953868e-01
        37         1       -9.301189e-01
        38         1       -8.038843e-01
        39         1       -8.149123e-01
        40         1        8.678439e-01
        41         1        3.551577e-02
        42         1        1.094379e+00
        43         1        2.391515e-03
        44         1        2.095342e+00
        45         1       -2.303053e+00
        46         1        2.158296e+00
        47         1        1.076304e-02
        48         1        4.607796e-01
        49         1        5.846362e-02
        50         1        2.192655e+00
        51         1       -1.174965e+00
        52         1       -1.015324e+00
        53         1        1.110883e+00
        54         1       -1.780112e-01
        55         1        4.194356e-01
        56         1        6.959218e-01
        57         1       -8.313168e-01
        58         1        8.032084e-01
        59         1       -2.177575e+00
        60         1       -1.906127e-01
        61         1       -3.846317e-01
        62         1       -2.686141e-01
        63         1       -3.511976e-01
        64         1       -7.807097e-01
        65         1        1.037947e+00
        66         1       -2.419226e-01
        67         1       -3.581181e-02
        68         1        5.701132e-02
        69         1       -8.602922e-01
        70         1       -1.306244e+00
        71         1       -4.806818e-01
        72         1        1.106172e+00
        73         1       -8.141723e-01
        74         1        1.223837e+00
        75         1        1.310309e+00
        76         1        1.349624e+00
        77         1        8.592161e-01
        78         1        8.054014e-01
        79         1       -3.061589e-01
        80         1        1.628082e+00
        81         1        4.224940e-01
        82         1        5.542975e-01
        83         1       -1.432541e+00
        84         1       -9.377264e-01
        85         1        1.254060e+00
        86         1       -3.084320e-01
        87         1        5.410105e-01
        88         1       -6.973265e-02
        89         1       -3.140205e+00
        90         1        2.258392e-01
        91         1       -2.493940e+00
        92         1       -1.094755e+00
        93         1       -1.127599e+00
        94         1        6.897313e-01
        95         1       -1.004048e-01
        96         1        7.410147e-01
        97         1        3.670673e-01
        98         1       -3.970033e-01
        99         1       -6.399772e-01
       100         1       -9.354972e-01
         1         2        1.122326e-01
         2         2       -1.175909e+00
         3         2        2.058989e-01
         4         2        5.594128e-01
         5         2        2.327730e-01
         6         2        1.064968e-01
         7         2       -3.306465e-02
         8         2        2.097659e+00
         9         2       -2.982729e+00
        10         2        2.310389e+00
        11         2        1.172827e+00
        12         2        1.734684e+00
        13         2       -4.062740e-01
        14         2        2.434728e+00
        15         2        1.025540e+00
        16         2        9.822874e-02
        17         2       -8.262418e-01
        18         2        2.370996e-01
        19         2        4.074586e-01
        20         2        3.662062e-01
        21         2        7.468136e-01
        22         2       -1.272372e+00
        23         2       -5.137572e-01
        24         2        5.944334e-01
        25         2        4.406385e-02
        26         2        9.686921e-01
        27         2       -9.186296e-01
        28         2       -1.180668e-01
        29         2       -9.778547e-01
        30         2        4.578392e-01
        31         2       -4.862114e-02
        32         2        1.184887e-01
        33         2        1.471206e+00
        34         2        1.356254e-01
        35         2        6.828511e-01
        36         2       -7.272647e-01
        37         2        6.134805e-01
        38         2        2.289874e+00
        39         2        2.432450e-01
        40         2        1.817667e-01
        41         2       -5.050284e-01
        42         2        5.640374e-02
        43         2       -1.238278e-01
        44         2       -8.715284e-01
        45         2        1.678975e+00
        46         2       -1.832772e+00
        47         2        1.305873e+00
        48         2       -1.009592e+00
        49         2       -8.685962e-01
        50         2        1.381394e+00
        51         2       -2.039807e-01
        52         2       -1.597775e-01
        53         2       -5.066026e-01
        54         2       -6.517202e-02
        55         2        2.755664e-01
        56         2       -1.065713e+00
        57         2        1.909912e-01
        58         2        3.379470e-01
        59         2       -8.543400e-01
        60         2       -1.334923e+00
        61         2       -1.584302e+00
        62         2        2.273035e+00
        63         2       -7.056305e-01
        64         2        1.145727e+00
        65         2       -9.576913e-02
        66         2       -6.707846e-01
        67         2        2.679342e-01
        68         2        2.312316e-01
        69         2       -3.168777e-01
        70         2        1.854828e+00
        71         2        1.902020e-01
        72         2       -1.770353e+00
        73         2        1.729904e+00
        74         2       -2.932154e-01
        75         2        7.615576e-01
        76         2        2.560978e-01
        77         2       -1.172945e+00
        78         2       -2.587796e+00
        79         2        1.476273e+00
        80         2        2.354979e-01
        81         2       -6.991255e-01
        82         2       -1.670977e+00
        83         2        1.095245e+00
        84         2       -1.238291e-01
        85         2       -1.234060e+00
        86         2        2.450903e-01
        87         2        1.172895e-01
        88         2        2.055011e+00
        89         2        1.328763e+00
        90         2       -8.787342e-01
        91         2       -5.705725e-01
        92         2       -1.438384e+00
        93         2       -1.172882e+00
        94         2        6.478775e-02
        95         2        4.206555e-01
        96         2       -3.213462e-01
        97         2        5.367354e-01
        98         2        8.762751e-03
        99         2       -8.329088e-01
       100         2        3.430959e-01
         1         3       -7.633573e-01
         2         3        5.175328e-01
         3         3       -1.149433e+00
         4         3       -1.115216e+00
         5         3       -4.517414e-02
         6         3        1.347230e+00
         7         3        2.574226e-01
         8         3       -5.045422e-01
         9         3        3.052551e-01
        10         3        1.754049e+00
        11         3        5.938076e-01
        12         3       -3.152500e-01
        13         3        1.114541e+00
        14         3       -1.251733e+00
        15         3       -6.984226e-01
        16         3       -2.786717e-01
        17         3       -2.348106e+00
        18         3        1.762163e+00
        19         3        8.647945e-01
        20         3        7.783698e-01
        21         3       -1.090653e+00
        22         3       -1.036221e+00
        23         3       -1.321038e+00
        24         3        1.912761e-01
        25         3        1.872559e+00
        26         3       -2.110880e-01
        27         3        3.424945e-02
        28         3        8.086348e-01
        29         3        1.003344e-03
        30         3       -6.847163e-01
        31         3        3.207368e-01
        32         3       -1.280685e+00
        33         3        4.220889e-01
        34         3        2.900056e-01
        35         3       -3.025653e-01
        36         3       -2.861120e-02
        37         3        1.382800e+00
        38         3        2.182316e+00
        39         3        9.744270e-01
        40         3        1.153864e+00
        41         3        1.469547e+00
        42         3        3.630649e-01
        43         3       -1.049265e+00
        44         3        4.755172e-01
        45         3        2.009888e+00
        46         3       -2.249416e-01
        47         3       -7.245569e-01
        48         3        7.896243e-01
        49         3       -1.842497e+00
        50         3       -9.638053e-01
        51         3       -2.901393e+00
        52         3        9.350459e-01
        53         3       -7.936418e-01
        54         3        3.676957e-01
        55         3        5.628566e-01
        56         3        3.727757e-03
        57         3       -4.953892e-01
        58         3        1.079286e+00
        59         3        1.000934e+00
        60         3       -3.883886e-01
        61         3       -9.508700e-01
        62         3        2.239585e-01
        63         3       -1.828308e-01
        64         3        6.770913e-01
        65         3       -2.196951e+00
        66         3        8.919670e-01
        67         3       -3.812136e-01
        68         3       -2.953247e+00
        69         3        1.132729e-01
        70         3       -6.082600e-01
        71         3        4.009630e-01
        72         3        4.745282e-01
        73         3       -3.026349e+00
        74         3        1.950236e+00
        75         3        1.763328e+00
        76         3       -6.550720e-01
        77         3        1.198438e+00
        78         3       -8.019812e-01
        79         3        1.237566e+00
        80         3        1.407875e+00
        81         3       -1.093789e+00
        82         3       -9.453092e-01
        83         3        9.098545e-02
        84         3       -1.280654e+00
        85         3        1.149339e+00
        86         3       -5.848957e-02
        87         3       -1.081753e+00
        88         3       -3.263705e-01
        89         3        1.674222e+00
        90         3       -8.607867e-01
        91         3       -2.213903e+00
        92         3       -2.161325e-01
        93         3        1.267894e+00
        94         3       -1.082204e+00
        95         3       -7.058125e-01
        96         3       -4.318488e-02
        97         3        2.660438e+00
        98         3        1.940982e-01
        99         3        2.027482e-01
       100         3        7.879038e-01
         1         4        2.036411e+00
         2         4       -2.217423e-01
         3         4       -8.697343e-01
         4         4        2.186906e-01
         5         4       -2.130062e-01
         6         4        1.618153e+00
         7         4        5.569976e-01
         8         4       -9.966176e-01
         9         4        2.943505e-01
        10         4        4.964938e-01
        11         4        1.053049e+00
        12         4       -1.292063e+00
        13         4       -1.287477e+00
        14         4        8.971872e-01
        15         4        1.546068e+00
        16         4       -1.123716e+00
        17         4       -1.235942e+00
        18         4        1.060422e-01
        19         4       -1.349269e+00
        20         4       -2.081809e-01
        21         4       -6.390543e-01
        22         4        1.084296e+00
        23         4        2.751681e-01
        24         4        5.020028e-01
        25         4        1.506672e+00
        26         4       -6.362499e-01
        27         4        6.845663e-01
        28         4       -5.121297e-01
        29         4        9.961473e-01
        30         4       -1.320925e+00
        31         4       -1.156452e+00
        32         4        5.565212e-03
        33         4        5.855256e-01
        34         4       -3.678107e-03
        35         4        1.866188e-02
        36         4       -2.363982e+00
        37         4       -8.455899e-02
        38         4        5.286855e-01
        39         4        1.357431e+00
        40         4       -1.893392e+00
        41         4       -8.140194e-02
        42         4        1.905968e-01
        43         4        7.514910e-02
        44         4        2.719006e-01
        45         4        8.333854e-01
        46         4        1.113727e+00
        47         4        1.273875e+00
        48         4       -6.810789e-01
        49         4        1.588718e+00
        50         4       -3.086875e-01
        51         4       -1.546803e-01
        52         4        8.144304e-01
        53         4        1.203367e+00
        54         4       -1.491242e+00
        55         4       -1.447312e+00
        56         4       -3.689479e-01
        57         4        4.465918e-01
        58         4        8.507364e-01
        59         4       -9.739192e-01
        60         4       -1.568097e+00
        61         4       -1.239685e+00
        62         4       -1.312817e-01
        63         4        7.213944e-01
        64         4       -1.140608e+00
        65         4       -7.448628e-01
        66         4       -5.438659e-01
        67         4        1.140755e+00
        68         4        7.073154e-01
        69         4        1.071173e+00
        70         4        4.709247e-01
        71         4       -4.636050e-01
        72         4        7.572201e-01
        73         4       -4.862896e-01
        74         4        1.900658e+00
        75         4        8.403219e-01
        76         4        1.483516e+00
        77         4        1.514196e-01
        78         4        7.997345e-01
        79         4        3.496035e-01
        80         4       -1.886622e+00
        81         4        4.760177e-01
        82         4       -4.457848e-03
        83         4       -6.488660e-01
        84         4        5.549827e-01
        85         4       -2.186847e+00
        86         4       -1.975467e-01
        87         4        2.071948e-01
        88         4       -1.219750e+00
        89         4       -1.392438e+00
        90         4        4.453072e-01
        91         4        8.266434e-01
        92         4       -4.927801e-01
        93         4        6.746223e-01
        94         4        2.623843e-01
        95         4       -8.522764e-01
        96         4        9.324747e-02
        97         4       -1.733648e+00
        98         4        2.789319e-01
        99         4       -6.954836e-01
       100         4       -1.392394e+00
         1         5       -1.132676e+00
         2         5        2.649241e-02
         3         5       -1.431129e-01
         4         5        9.470618e-01
         5         5        1.465374e+00
         6         5        2.754128e+00
         7         5        2.020719e+00
         8         5       -1.552559e+00
         9         5       -2.833712e-02
        10         5        1.607380e+00
        11         5       -1.986315e+00
        12         5        7.801363e-01
        13         5       -3.025683e-01
        14         5       -2.763065e-01
        15         5        1.271566e+00
        16         5        7.784040e-01
        17         5        1.907009e+00
        18         5        1.022102e-01
        19         5        5.491150e-01
        20         5       -6.478274e-01
        21         5        1.607112e+00
        22         5        1.225593e+00
        23         5        5.475371e-01
        24         5       -9.023985e-01
        25         5       -7.028847e-01
        26         5       -2.601313e-01
        27         5        1.393312e-01
        28         5        1.030768e+00
        29         5       -6.375126e-01
        30         5       -9.247288e-01
        31         5        2.388114e+00
        32         5        2.268153e-01
        33         5        5.316932e-01
        34         5        1.446846e+00
        35         5       -7.581886e-01
        36         5        3.887914e-01
        37         5        1.835473e+00
        38         5        1.960631e-01
        39         5        5.372875e-01
        40         5        1.258092e+00
        41         5        1.069151e+00
        42         5        6.231213e-01
        43         5        1.295338e+00
        44         5        6.493959e-01
        45         5        4.846095e-01
        46         5        2.683856e+00
        47         5       -1.269736e+00
        48         5       -9.453191e-01
        49         5       -2.112557e+00
        50         5        4.870854e-01
        51         5       -1.469312e+00
        52         5       -3.172962e-01
        53         5       -8.419654e-01
        54         5       -8.312843e-01
        55         5       -3.630119e-01
        56         5        4.458323e-01
        57         5        4.747935e-01
        58         5       -1.371924e-01
        59         5        3.515970e-02
        60         5        1.179543e+00
        61         5       -4.818488e-01
        62         5        2.275806e-01
        63         5        7.410632e-01
        64         5        9.759386e-01
        65         5        1.237523e+00
        66         5       -1.287031e-01
        67         5       -1.275719e+00
        68         5        9.918500e-01
        69         5       -8.174767e-01
        70         5       -7.427863e-01
        71         5        7.712477e-02
        72         5       -9.922864e-01
        73         5       -9.586775e-01
        74         5       -4.141423e-01
        75         5       -7.844579e-01
        76         5       -4.987855e-01
        77         5        4.842833e-01
        78         5        1.200541e+00
        79         5        8.717556e-01
        80         5       -1.096914e+00
        81         5        6.870268e-01
        82         5       -8.109023e-01
        83         5        1.176438e+00
        84         5       -8.277097e-02
        85         5       -9.581096e-01
        86         5        1.282828e+00
        87         5       -1.423703e+00
        88         5       -2.026207e+00
        89         5       -2.050494e-01
        90         5       -8.089430e-02
        91         5       -1.848297e+00
        92         5       -1.696003e-01
        93         5       -3.993328e-01
        94         5        2.672331e+00
        95         5       -1.560581e+00
        96         5        2.509841e-01
        97         5       -7.689719e-01
        98         5        1.871735e+00
        99         5        2.087226e+00
       100         5        2.621634e-01
;

param theta:=
    1       -7.978045e-02
    2       -2.815095e-01
    3       -1.464622e+00
    4        9.954403e-01
    5       -4.183650e-01
;
param X_true:=
    1        3.590642e+00
    2       -6.956457e-01
    3        7.240193e-01
    4        1.276150e+00
    5       -9.892708e-01
    6       -1.447345e+00
    7       -5.359314e-01
    8       -3.121704e-01
    9        5.027600e-01
   10       -3.409728e+00
   11        7.802766e-01
   12       -1.613093e+00
   13       -2.701370e+00
   14        2.097414e+00
   15        1.863075e+00
   16       -1.099955e+00
   17        1.616565e+00
   18       -2.642228e+00
   19       -2.972744e+00
   20       -1.183088e+00
   21        3.662511e-02
   22        2.452492e+00
   23        2.017509e+00
   24        3.435544e-01
   25       -9.031632e-01
   26       -3.328198e-01
   27        7.684289e-01
   28       -2.072184e+00
   29        1.579843e+00
   30       -4.849554e-02
   31       -2.600483e+00
   32        1.840064e+00
   33       -6.416510e-01
   34       -1.034186e+00
   35        7.583747e-01
   36       -2.332680e+00
   37       -2.975846e+00
   38       -3.332506e+00
   39       -3.041699e-01
   40       -4.221481e+00
   41       -2.541320e+00
   42       -7.059055e-01
   43        1.104327e+00
   44       -6.193006e-01
   45       -2.605793e+00
   46        6.590247e-01
   47        2.492007e+00
   48       -1.191538e+00
   49        5.403710e+00
   50        3.367448e-01
   51        4.861340e+00
   52       -3.000446e-01
   53        2.766501e+00
   54       -1.642649e+00
   55       -2.224250e+00
   56       -3.147586e-01
   57        9.840334e-01
   58       -8.357080e-01
   59       -2.035946e+00
   60       -1.094583e+00
   61        8.369030e-01
   62       -1.172360e+00
   63        9.025086e-01
   64       -2.795636e+00
   65        1.902652e+00
   66       -1.585803e+00
   67        2.155035e+00
   68        4.544883e+00
   69        1.400229e+00
   70        1.252465e+00
   71       -1.096211e+00
   72        8.840212e-01
   73        3.927434e+00
   74       -8.061996e-01
   75       -1.736852e+00
   76        2.465091e+00
   77       -1.545490e+00
   78        2.132657e+00
   79       -2.220429e+00
   80       -3.677298e+00
   81        1.951511e+00
   82        2.145510e+00
   83       -1.465380e+00
   84        2.572425e+00
   85       -3.212033e+00
   86       -6.920594e-01
   87        2.310057e+00
   88       -4.614267e-01
   89       -3.875938e+00
   90        1.967202e+00
   91        5.198258e+00
   92        3.892330e-01
   93       -5.982354e-01
   94        6.549324e-01
   95        7.278427e-01
   96        8.241237e-02
   97       -5.480950e+00
   98       -7.604827e-01
   99       -1.576955e+00
  100       -2.671656e+00
;
param X:=
    1       -1.167191e+00
    2       -6.956457e-01
    3        7.240193e-01
    4       -1.798450e-01
    5       -9.892708e-01
    6        6.068408e-01
    7       -1.051761e+00
    8        2.267633e-01
    9        5.027600e-01
   10        2.024994e+00
   11        7.802766e-01
   12       -1.613093e+00
   13       -6.075827e-01
   14       -6.432578e-01
   15        1.863075e+00
   16        1.748970e+00
   17        1.616565e+00
   18       -2.642228e+00
   19       -2.972744e+00
   20       -1.183088e+00
   21        4.660412e-01
   22       -1.340571e+00
   23        5.280121e-01
   24        3.435544e-01
   25        1.159685e+00
   26       -7.715104e-01
   27        7.684289e-01
   28       -2.072184e+00
   29        1.579843e+00
   30       -2.207948e-02
   31       -2.600483e+00
   32       -6.991337e-01
   33       -6.416510e-01
   34       -1.034186e+00
   35        7.583747e-01
   36        3.778680e-01
   37       -2.975846e+00
   38       -2.024356e+00
   39       -3.041699e-01
   40        1.297364e+00
   41       -1.476931e-01
   42       -1.584545e-01
   43        1.104327e+00
   44        2.471209e+00
   45        3.636826e-01
   46        6.590247e-01
   47        2.492007e+00
   48       -6.824680e-01
   49        5.403710e+00
   50        3.302045e-01
   51       -6.518039e-01
   52       -3.000446e-01
   53        2.766501e+00
   54       -1.642649e+00
   55       -2.224250e+00
   56       -2.191864e-01
   57        9.840334e-01
   58       -8.357080e-01
   59       -6.767341e-01
   60       -1.094583e+00
   61        8.369030e-01
   62       -1.172360e+00
   63        9.025086e-01
   64       -2.795636e+00
   65        1.902652e+00
   66        4.821838e-01
   67       -2.010587e+00
   68        4.544883e+00
   69        1.400229e+00
   70       -1.288042e+00
   71       -1.096211e+00
   72        8.840212e-01
   73        3.927434e+00
   74       -9.362435e-01
   75       -1.736852e+00
   76        1.187666e+00
   77       -1.027189e+00
   78        2.132657e+00
   79       -2.220429e+00
   80       -3.677298e+00
   81        9.502582e-02
   82       -1.539162e-01
   83       -1.465380e+00
   84        2.572425e+00
   85       -3.212033e+00
   86       -6.037237e-01
   87        2.310057e+00
   88       -4.614267e-01
   89       -3.875938e+00
   90        1.967202e+00
   91        1.213950e+00
   92        3.892330e-01
   93       -5.982354e-01
   94        6.549324e-01
   95        2.042312e-01
   96        8.241237e-02
   97       -5.480950e+00
   98       -7.604827e-01
   99       -1.576955e+00
  100       -5.508208e-01
;
param outliervec:=
    1    1
    2    0
    3    0
    4    1
    5    0
    6    1
    7    1
    8    1
    9    0
   10    1
   11    0
   12    0
   13    1
   14    1
   15    0
   16    1
   17    0
   18    0
   19    0
   20    0
   21    1
   22    1
   23    1
   24    0
   25    1
   26    1
   27    0
   28    0
   29    0
   30    1
   31    0
   32    1
   33    0
   34    0
   35    0
   36    1
   37    0
   38    1
   39    0
   40    1
   41    1
   42    1
   43    0
   44    1
   45    1
   46    0
   47    0
   48    1
   49    0
   50    1
   51    1
   52    0
   53    0
   54    0
   55    0
   56    1
   57    0
   58    0
   59    1
   60    0
   61    0
   62    0
   63    0
   64    0
   65    0
   66    1
   67    1
   68    0
   69    0
   70    1
   71    0
   72    0
   73    0
   74    1
   75    0
   76    1
   77    1
   78    0
   79    0
   80    0
   81    1
   82    1
   83    0
   84    0
   85    0
   86    1
   87    0
   88    0
   89    0
   90    0
   91    1
   92    0
   93    0
   94    0
   95    1
   96    0
   97    0
   98    0
   99    0
  100    1
;